results/x-10M/X-n134-k13.vrp_seed-5.out
10917	9652
