results/x-10M/X-n134-k13.vrp_seed-5.vrp.sol
Route #1: 58 34 41 105 25 113 89 116 129
Route #2: 100 122 11 114 131 101 52 40
Route #3: 76 82 133 12 124 33 86 72 3
Route #4: 92 61 71 120 111 36 43 79 48
Route #5: 78 87 74 26 35 50 38 83
Route #6: 132 109 17 19 130 80 115 125 128
Route #7: 118 91 51 16 14 60 95
Route #8: 47 9 2 39 73 18 96 59
Route #9: 127 112 64 117 49 69 1 29 31
Route #10: 90 66 53 77 23 98 75 28 65 42 93 94 102 88 37 24
Route #11: 56 123 110 54 32 62 10 103
Route #12: 108 6 97 5 121 7 68 30 8 44 67 20 126 55 22 27 4 70 107 84 81 15 63 13
Route #13: 85 106 45 21 46 99 104 57 119
Cost 10917.000000